p cnf 480 1596
-1 0
-241 0
256 2 0
-256 -2 0
2 271 3 0
-2 -271 0
-2 -3 0
-271 -3 0
3 286 4 0
-3 -286 0
-3 -4 0
-286 -4 0
4 301 5 0
-4 -301 0
-4 -5 0
-301 -5 0
5 316 6 0
-5 -316 0
-5 -6 0
-316 -6 0
6 331 7 0
-6 -331 0
-6 -7 0
-331 -7 0
7 346 8 0
-7 -346 0
-7 -8 0
-346 -8 0
8 361 9 0
-8 -361 0
-8 -9 0
-361 -9 0
9 376 10 0
-9 -376 0
-9 -10 0
-376 -10 0
10 391 11 0
-10 -391 0
-10 -11 0
-391 -11 0
11 406 12 0
-11 -406 0
-11 -12 0
-406 -12 0
12 421 13 0
-12 -421 0
-12 -13 0
-421 -13 0
13 436 14 0
-13 -436 0
-13 -14 0
-436 -14 0
14 451 15 0
-14 -451 0
-14 -15 0
-451 -15 0
15 466 0
-15 -466 0
242 16 0
-242 -16 0
256 16 257 17 0
-256 -16 0
-256 -257 0
-256 -17 0
-16 -257 0
-16 -17 0
-257 -17 0
271 17 272 18 0
-271 -17 0
-271 -272 0
-271 -18 0
-17 -272 0
-17 -18 0
-272 -18 0
286 18 287 19 0
-286 -18 0
-286 -287 0
-286 -19 0
-18 -287 0
-18 -19 0
-287 -19 0
301 19 302 20 0
-301 -19 0
-301 -302 0
-301 -20 0
-19 -302 0
-19 -20 0
-302 -20 0
316 20 317 21 0
-316 -20 0
-316 -317 0
-316 -21 0
-20 -317 0
-20 -21 0
-317 -21 0
331 21 332 22 0
-331 -21 0
-331 -332 0
-331 -22 0
-21 -332 0
-21 -22 0
-332 -22 0
346 22 347 23 0
-346 -22 0
-346 -347 0
-346 -23 0
-22 -347 0
-22 -23 0
-347 -23 0
361 23 362 24 0
-361 -23 0
-361 -362 0
-361 -24 0
-23 -362 0
-23 -24 0
-362 -24 0
376 24 377 25 0
-376 -24 0
-376 -377 0
-376 -25 0
-24 -377 0
-24 -25 0
-377 -25 0
391 25 392 26 0
-391 -25 0
-391 -392 0
-391 -26 0
-25 -392 0
-25 -26 0
-392 -26 0
406 26 407 27 0
-406 -26 0
-406 -407 0
-406 -27 0
-26 -407 0
-26 -27 0
-407 -27 0
421 27 422 28 0
-421 -27 0
-421 -422 0
-421 -28 0
-27 -422 0
-27 -28 0
-422 -28 0
436 28 437 29 0
-436 -28 0
-436 -437 0
-436 -29 0
-28 -437 0
-28 -29 0
-437 -29 0
451 29 452 30 0
-451 -29 0
-451 -452 0
-451 -30 0
-29 -452 0
-29 -30 0
-452 -30 0
466 30 467 0
-466 -30 0
-466 -467 0
-30 -467 0
242 243 31 0
-242 -243 0
-242 -31 0
-243 -31 0
257 31 258 32 0
-257 -31 0
-257 -258 0
-257 -32 0
-31 -258 0
-31 -32 0
-258 -32 0
272 32 273 33 0
-272 -32 0
-272 -273 0
-272 -33 0
-32 -273 0
-32 -33 0
-273 -33 0
287 33 288 34 0
-287 -33 0
-287 -288 0
-287 -34 0
-33 -288 0
-33 -34 0
-288 -34 0
302 34 303 35 0
-302 -34 0
-302 -303 0
-302 -35 0
-34 -303 0
-34 -35 0
-303 -35 0
317 35 318 36 0
-317 -35 0
-317 -318 0
-317 -36 0
-35 -318 0
-35 -36 0
-318 -36 0
332 36 333 37 0
-332 -36 0
-332 -333 0
-332 -37 0
-36 -333 0
-36 -37 0
-333 -37 0
347 37 348 38 0
-347 -37 0
-347 -348 0
-347 -38 0
-37 -348 0
-37 -38 0
-348 -38 0
362 38 363 39 0
-362 -38 0
-362 -363 0
-362 -39 0
-38 -363 0
-38 -39 0
-363 -39 0
377 39 378 40 0
-377 -39 0
-377 -378 0
-377 -40 0
-39 -378 0
-39 -40 0
-378 -40 0
392 40 393 41 0
-392 -40 0
-392 -393 0
-392 -41 0
-40 -393 0
-40 -41 0
-393 -41 0
407 41 408 42 0
-407 -41 0
-407 -408 0
-407 -42 0
-41 -408 0
-41 -42 0
-408 -42 0
422 42 423 43 0
-422 -42 0
-422 -423 0
-422 -43 0
-42 -423 0
-42 -43 0
-423 -43 0
437 43 438 44 0
-437 -43 0
-437 -438 0
-437 -44 0
-43 -438 0
-43 -44 0
-438 -44 0
452 44 453 45 0
-452 -44 0
-452 -453 0
-452 -45 0
-44 -453 0
-44 -45 0
-453 -45 0
467 45 468 0
-467 -45 0
-467 -468 0
-45 -468 0
243 244 46 0
-243 -244 0
-243 -46 0
-244 -46 0
258 46 259 47 0
-258 -46 0
-258 -259 0
-258 -47 0
-46 -259 0
-46 -47 0
-259 -47 0
273 47 274 48 0
-273 -47 0
-273 -274 0
-273 -48 0
-47 -274 0
-47 -48 0
-274 -48 0
288 48 289 49 0
-288 -48 0
-288 -289 0
-288 -49 0
-48 -289 0
-48 -49 0
-289 -49 0
303 49 304 50 0
-303 -49 0
-303 -304 0
-303 -50 0
-49 -304 0
-49 -50 0
-304 -50 0
318 50 319 51 0
-318 -50 0
-318 -319 0
-318 -51 0
-50 -319 0
-50 -51 0
-319 -51 0
333 51 334 52 0
-333 -51 0
-333 -334 0
-333 -52 0
-51 -334 0
-51 -52 0
-334 -52 0
348 52 349 53 0
-348 -52 0
-348 -349 0
-348 -53 0
-52 -349 0
-52 -53 0
-349 -53 0
363 53 364 54 0
-363 -53 0
-363 -364 0
-363 -54 0
-53 -364 0
-53 -54 0
-364 -54 0
378 54 379 55 0
-378 -54 0
-378 -379 0
-378 -55 0
-54 -379 0
-54 -55 0
-379 -55 0
393 55 394 56 0
-393 -55 0
-393 -394 0
-393 -56 0
-55 -394 0
-55 -56 0
-394 -56 0
408 56 409 57 0
-408 -56 0
-408 -409 0
-408 -57 0
-56 -409 0
-56 -57 0
-409 -57 0
423 57 424 58 0
-423 -57 0
-423 -424 0
-423 -58 0
-57 -424 0
-57 -58 0
-424 -58 0
438 58 439 59 0
-438 -58 0
-438 -439 0
-438 -59 0
-58 -439 0
-58 -59 0
-439 -59 0
453 59 454 60 0
-453 -59 0
-453 -454 0
-453 -60 0
-59 -454 0
-59 -60 0
-454 -60 0
468 60 469 0
-468 -60 0
-468 -469 0
-60 -469 0
244 245 61 0
-244 -245 0
-244 -61 0
-245 -61 0
259 61 260 62 0
-259 -61 0
-259 -260 0
-259 -62 0
-61 -260 0
-61 -62 0
-260 -62 0
274 62 275 63 0
-274 -62 0
-274 -275 0
-274 -63 0
-62 -275 0
-62 -63 0
-275 -63 0
289 63 290 64 0
-289 -63 0
-289 -290 0
-289 -64 0
-63 -290 0
-63 -64 0
-290 -64 0
304 64 305 65 0
-304 -64 0
-304 -305 0
-304 -65 0
-64 -305 0
-64 -65 0
-305 -65 0
319 65 320 66 0
-319 -65 0
-319 -320 0
-319 -66 0
-65 -320 0
-65 -66 0
-320 -66 0
334 66 335 67 0
-334 -66 0
-334 -335 0
-334 -67 0
-66 -335 0
-66 -67 0
-335 -67 0
349 67 350 68 0
-349 -67 0
-349 -350 0
-349 -68 0
-67 -350 0
-67 -68 0
-350 -68 0
364 68 365 69 0
-364 -68 0
-364 -365 0
-364 -69 0
-68 -365 0
-68 -69 0
-365 -69 0
379 69 380 70 0
-379 -69 0
-379 -380 0
-379 -70 0
-69 -380 0
-69 -70 0
-380 -70 0
394 70 395 71 0
-394 -70 0
-394 -395 0
-394 -71 0
-70 -395 0
-70 -71 0
-395 -71 0
409 71 410 72 0
-409 -71 0
-409 -410 0
-409 -72 0
-71 -410 0
-71 -72 0
-410 -72 0
424 72 425 73 0
-424 -72 0
-424 -425 0
-424 -73 0
-72 -425 0
-72 -73 0
-425 -73 0
439 73 440 74 0
-439 -73 0
-439 -440 0
-439 -74 0
-73 -440 0
-73 -74 0
-440 -74 0
454 74 455 75 0
-454 -74 0
-454 -455 0
-454 -75 0
-74 -455 0
-74 -75 0
-455 -75 0
469 75 470 0
-469 -75 0
-469 -470 0
-75 -470 0
245 246 76 0
-245 -246 0
-245 -76 0
-246 -76 0
260 76 261 77 0
-260 -76 0
-260 -261 0
-260 -77 0
-76 -261 0
-76 -77 0
-261 -77 0
275 77 276 78 0
-275 -77 0
-275 -276 0
-275 -78 0
-77 -276 0
-77 -78 0
-276 -78 0
290 78 291 79 0
-290 -78 0
-290 -291 0
-290 -79 0
-78 -291 0
-78 -79 0
-291 -79 0
305 79 306 80 0
-305 -79 0
-305 -306 0
-305 -80 0
-79 -306 0
-79 -80 0
-306 -80 0
320 80 321 81 0
-320 -80 0
-320 -321 0
-320 -81 0
-80 -321 0
-80 -81 0
-321 -81 0
335 81 336 82 0
-335 -81 0
-335 -336 0
-335 -82 0
-81 -336 0
-81 -82 0
-336 -82 0
350 82 351 83 0
-350 -82 0
-350 -351 0
-350 -83 0
-82 -351 0
-82 -83 0
-351 -83 0
365 83 366 84 0
-365 -83 0
-365 -366 0
-365 -84 0
-83 -366 0
-83 -84 0
-366 -84 0
380 84 381 85 0
-380 -84 0
-380 -381 0
-380 -85 0
-84 -381 0
-84 -85 0
-381 -85 0
395 85 396 86 0
-395 -85 0
-395 -396 0
-395 -86 0
-85 -396 0
-85 -86 0
-396 -86 0
410 86 411 87 0
-410 -86 0
-410 -411 0
-410 -87 0
-86 -411 0
-86 -87 0
-411 -87 0
425 87 426 88 0
-425 -87 0
-425 -426 0
-425 -88 0
-87 -426 0
-87 -88 0
-426 -88 0
440 88 441 89 0
-440 -88 0
-440 -441 0
-440 -89 0
-88 -441 0
-88 -89 0
-441 -89 0
455 89 456 90 0
-455 -89 0
-455 -456 0
-455 -90 0
-89 -456 0
-89 -90 0
-456 -90 0
470 90 471 0
-470 -90 0
-470 -471 0
-90 -471 0
246 247 91 0
-246 -247 0
-246 -91 0
-247 -91 0
261 91 262 92 0
-261 -91 0
-261 -262 0
-261 -92 0
-91 -262 0
-91 -92 0
-262 -92 0
276 92 277 93 0
-276 -92 0
-276 -277 0
-276 -93 0
-92 -277 0
-92 -93 0
-277 -93 0
291 93 292 94 0
-291 -93 0
-291 -292 0
-291 -94 0
-93 -292 0
-93 -94 0
-292 -94 0
306 94 307 95 0
-306 -94 0
-306 -307 0
-306 -95 0
-94 -307 0
-94 -95 0
-307 -95 0
321 95 322 96 0
-321 -95 0
-321 -322 0
-321 -96 0
-95 -322 0
-95 -96 0
-322 -96 0
336 96 337 97 0
-336 -96 0
-336 -337 0
-336 -97 0
-96 -337 0
-96 -97 0
-337 -97 0
351 97 352 98 0
-351 -97 0
-351 -352 0
-351 -98 0
-97 -352 0
-97 -98 0
-352 -98 0
366 98 367 99 0
-366 -98 0
-366 -367 0
-366 -99 0
-98 -367 0
-98 -99 0
-367 -99 0
381 99 382 100 0
-381 -99 0
-381 -382 0
-381 -100 0
-99 -382 0
-99 -100 0
-382 -100 0
396 100 397 101 0
-396 -100 0
-396 -397 0
-396 -101 0
-100 -397 0
-100 -101 0
-397 -101 0
411 101 412 102 0
-411 -101 0
-411 -412 0
-411 -102 0
-101 -412 0
-101 -102 0
-412 -102 0
426 102 427 103 0
-426 -102 0
-426 -427 0
-426 -103 0
-102 -427 0
-102 -103 0
-427 -103 0
441 103 442 104 0
-441 -103 0
-441 -442 0
-441 -104 0
-103 -442 0
-103 -104 0
-442 -104 0
456 104 457 105 0
-456 -104 0
-456 -457 0
-456 -105 0
-104 -457 0
-104 -105 0
-457 -105 0
471 105 472 0
-471 -105 0
-471 -472 0
-105 -472 0
247 248 106 0
-247 -248 0
-247 -106 0
-248 -106 0
262 106 263 107 0
-262 -106 0
-262 -263 0
-262 -107 0
-106 -263 0
-106 -107 0
-263 -107 0
277 107 278 108 0
-277 -107 0
-277 -278 0
-277 -108 0
-107 -278 0
-107 -108 0
-278 -108 0
292 108 293 109 0
-292 -108 0
-292 -293 0
-292 -109 0
-108 -293 0
-108 -109 0
-293 -109 0
307 109 308 110 0
-307 -109 0
-307 -308 0
-307 -110 0
-109 -308 0
-109 -110 0
-308 -110 0
322 110 323 111 0
-322 -110 0
-322 -323 0
-322 -111 0
-110 -323 0
-110 -111 0
-323 -111 0
337 111 338 112 0
-337 -111 0
-337 -338 0
-337 -112 0
-111 -338 0
-111 -112 0
-338 -112 0
352 112 353 113 0
-352 -112 0
-352 -353 0
-352 -113 0
-112 -353 0
-112 -113 0
-353 -113 0
367 113 368 114 0
-367 -113 0
-367 -368 0
-367 -114 0
-113 -368 0
-113 -114 0
-368 -114 0
382 114 383 115 0
-382 -114 0
-382 -383 0
-382 -115 0
-114 -383 0
-114 -115 0
-383 -115 0
397 115 398 116 0
-397 -115 0
-397 -398 0
-397 -116 0
-115 -398 0
-115 -116 0
-398 -116 0
412 116 413 117 0
-412 -116 0
-412 -413 0
-412 -117 0
-116 -413 0
-116 -117 0
-413 -117 0
427 117 428 118 0
-427 -117 0
-427 -428 0
-427 -118 0
-117 -428 0
-117 -118 0
-428 -118 0
442 118 443 119 0
-442 -118 0
-442 -443 0
-442 -119 0
-118 -443 0
-118 -119 0
-443 -119 0
457 119 458 120 0
-457 -119 0
-457 -458 0
-457 -120 0
-119 -458 0
-119 -120 0
-458 -120 0
472 120 473 0
-472 -120 0
-472 -473 0
-120 -473 0
248 249 121 0
-248 -249 0
-248 -121 0
-249 -121 0
263 121 264 122 0
-263 -121 0
-263 -264 0
-263 -122 0
-121 -264 0
-121 -122 0
-264 -122 0
278 122 279 123 0
-278 -122 0
-278 -279 0
-278 -123 0
-122 -279 0
-122 -123 0
-279 -123 0
293 123 294 124 0
-293 -123 0
-293 -294 0
-293 -124 0
-123 -294 0
-123 -124 0
-294 -124 0
308 124 309 125 0
-308 -124 0
-308 -309 0
-308 -125 0
-124 -309 0
-124 -125 0
-309 -125 0
323 125 324 126 0
-323 -125 0
-323 -324 0
-323 -126 0
-125 -324 0
-125 -126 0
-324 -126 0
338 126 339 127 0
-338 -126 0
-338 -339 0
-338 -127 0
-126 -339 0
-126 -127 0
-339 -127 0
353 127 354 128 0
-353 -127 0
-353 -354 0
-353 -128 0
-127 -354 0
-127 -128 0
-354 -128 0
368 128 369 129 0
-368 -128 0
-368 -369 0
-368 -129 0
-128 -369 0
-128 -129 0
-369 -129 0
383 129 384 130 0
-383 -129 0
-383 -384 0
-383 -130 0
-129 -384 0
-129 -130 0
-384 -130 0
398 130 399 131 0
-398 -130 0
-398 -399 0
-398 -131 0
-130 -399 0
-130 -131 0
-399 -131 0
413 131 414 132 0
-413 -131 0
-413 -414 0
-413 -132 0
-131 -414 0
-131 -132 0
-414 -132 0
428 132 429 133 0
-428 -132 0
-428 -429 0
-428 -133 0
-132 -429 0
-132 -133 0
-429 -133 0
443 133 444 134 0
-443 -133 0
-443 -444 0
-443 -134 0
-133 -444 0
-133 -134 0
-444 -134 0
458 134 459 135 0
-458 -134 0
-458 -459 0
-458 -135 0
-134 -459 0
-134 -135 0
-459 -135 0
473 135 474 0
-473 -135 0
-473 -474 0
-135 -474 0
249 250 136 0
-249 -250 0
-249 -136 0
-250 -136 0
264 136 265 137 0
-264 -136 0
-264 -265 0
-264 -137 0
-136 -265 0
-136 -137 0
-265 -137 0
279 137 280 138 0
-279 -137 0
-279 -280 0
-279 -138 0
-137 -280 0
-137 -138 0
-280 -138 0
294 138 295 139 0
-294 -138 0
-294 -295 0
-294 -139 0
-138 -295 0
-138 -139 0
-295 -139 0
309 139 310 140 0
-309 -139 0
-309 -310 0
-309 -140 0
-139 -310 0
-139 -140 0
-310 -140 0
324 140 325 141 0
-324 -140 0
-324 -325 0
-324 -141 0
-140 -325 0
-140 -141 0
-325 -141 0
339 141 340 142 0
-339 -141 0
-339 -340 0
-339 -142 0
-141 -340 0
-141 -142 0
-340 -142 0
354 142 355 143 0
-354 -142 0
-354 -355 0
-354 -143 0
-142 -355 0
-142 -143 0
-355 -143 0
369 143 370 144 0
-369 -143 0
-369 -370 0
-369 -144 0
-143 -370 0
-143 -144 0
-370 -144 0
384 144 385 145 0
-384 -144 0
-384 -385 0
-384 -145 0
-144 -385 0
-144 -145 0
-385 -145 0
399 145 400 146 0
-399 -145 0
-399 -400 0
-399 -146 0
-145 -400 0
-145 -146 0
-400 -146 0
414 146 415 147 0
-414 -146 0
-414 -415 0
-414 -147 0
-146 -415 0
-146 -147 0
-415 -147 0
429 147 430 148 0
-429 -147 0
-429 -430 0
-429 -148 0
-147 -430 0
-147 -148 0
-430 -148 0
444 148 445 149 0
-444 -148 0
-444 -445 0
-444 -149 0
-148 -445 0
-148 -149 0
-445 -149 0
459 149 460 150 0
-459 -149 0
-459 -460 0
-459 -150 0
-149 -460 0
-149 -150 0
-460 -150 0
474 150 475 0
-474 -150 0
-474 -475 0
-150 -475 0
250 251 151 0
-250 -251 0
-250 -151 0
-251 -151 0
265 151 266 152 0
-265 -151 0
-265 -266 0
-265 -152 0
-151 -266 0
-151 -152 0
-266 -152 0
280 152 281 153 0
-280 -152 0
-280 -281 0
-280 -153 0
-152 -281 0
-152 -153 0
-281 -153 0
295 153 296 154 0
-295 -153 0
-295 -296 0
-295 -154 0
-153 -296 0
-153 -154 0
-296 -154 0
310 154 311 155 0
-310 -154 0
-310 -311 0
-310 -155 0
-154 -311 0
-154 -155 0
-311 -155 0
325 155 326 156 0
-325 -155 0
-325 -326 0
-325 -156 0
-155 -326 0
-155 -156 0
-326 -156 0
340 156 341 157 0
-340 -156 0
-340 -341 0
-340 -157 0
-156 -341 0
-156 -157 0
-341 -157 0
355 157 356 158 0
-355 -157 0
-355 -356 0
-355 -158 0
-157 -356 0
-157 -158 0
-356 -158 0
370 158 371 159 0
-370 -158 0
-370 -371 0
-370 -159 0
-158 -371 0
-158 -159 0
-371 -159 0
385 159 386 160 0
-385 -159 0
-385 -386 0
-385 -160 0
-159 -386 0
-159 -160 0
-386 -160 0
400 160 401 161 0
-400 -160 0
-400 -401 0
-400 -161 0
-160 -401 0
-160 -161 0
-401 -161 0
415 161 416 162 0
-415 -161 0
-415 -416 0
-415 -162 0
-161 -416 0
-161 -162 0
-416 -162 0
430 162 431 163 0
-430 -162 0
-430 -431 0
-430 -163 0
-162 -431 0
-162 -163 0
-431 -163 0
445 163 446 164 0
-445 -163 0
-445 -446 0
-445 -164 0
-163 -446 0
-163 -164 0
-446 -164 0
460 164 461 165 0
-460 -164 0
-460 -461 0
-460 -165 0
-164 -461 0
-164 -165 0
-461 -165 0
475 165 476 0
-475 -165 0
-475 -476 0
-165 -476 0
251 252 166 0
-251 -252 0
-251 -166 0
-252 -166 0
266 166 267 167 0
-266 -166 0
-266 -267 0
-266 -167 0
-166 -267 0
-166 -167 0
-267 -167 0
281 167 282 168 0
-281 -167 0
-281 -282 0
-281 -168 0
-167 -282 0
-167 -168 0
-282 -168 0
296 168 297 169 0
-296 -168 0
-296 -297 0
-296 -169 0
-168 -297 0
-168 -169 0
-297 -169 0
311 169 312 170 0
-311 -169 0
-311 -312 0
-311 -170 0
-169 -312 0
-169 -170 0
-312 -170 0
326 170 327 171 0
-326 -170 0
-326 -327 0
-326 -171 0
-170 -327 0
-170 -171 0
-327 -171 0
341 171 342 172 0
-341 -171 0
-341 -342 0
-341 -172 0
-171 -342 0
-171 -172 0
-342 -172 0
356 172 357 173 0
-356 -172 0
-356 -357 0
-356 -173 0
-172 -357 0
-172 -173 0
-357 -173 0
371 173 372 174 0
-371 -173 0
-371 -372 0
-371 -174 0
-173 -372 0
-173 -174 0
-372 -174 0
386 174 387 175 0
-386 -174 0
-386 -387 0
-386 -175 0
-174 -387 0
-174 -175 0
-387 -175 0
401 175 402 176 0
-401 -175 0
-401 -402 0
-401 -176 0
-175 -402 0
-175 -176 0
-402 -176 0
416 176 417 177 0
-416 -176 0
-416 -417 0
-416 -177 0
-176 -417 0
-176 -177 0
-417 -177 0
431 177 432 178 0
-431 -177 0
-431 -432 0
-431 -178 0
-177 -432 0
-177 -178 0
-432 -178 0
446 178 447 179 0
-446 -178 0
-446 -447 0
-446 -179 0
-178 -447 0
-178 -179 0
-447 -179 0
461 179 462 180 0
-461 -179 0
-461 -462 0
-461 -180 0
-179 -462 0
-179 -180 0
-462 -180 0
476 180 477 0
-476 -180 0
-476 -477 0
-180 -477 0
252 253 181 0
-252 -253 0
-252 -181 0
-253 -181 0
267 181 268 182 0
-267 -181 0
-267 -268 0
-267 -182 0
-181 -268 0
-181 -182 0
-268 -182 0
282 182 283 183 0
-282 -182 0
-282 -283 0
-282 -183 0
-182 -283 0
-182 -183 0
-283 -183 0
297 183 298 184 0
-297 -183 0
-297 -298 0
-297 -184 0
-183 -298 0
-183 -184 0
-298 -184 0
312 184 313 185 0
-312 -184 0
-312 -313 0
-312 -185 0
-184 -313 0
-184 -185 0
-313 -185 0
327 185 328 186 0
-327 -185 0
-327 -328 0
-327 -186 0
-185 -328 0
-185 -186 0
-328 -186 0
342 186 343 187 0
-342 -186 0
-342 -343 0
-342 -187 0
-186 -343 0
-186 -187 0
-343 -187 0
357 187 358 188 0
-357 -187 0
-357 -358 0
-357 -188 0
-187 -358 0
-187 -188 0
-358 -188 0
372 188 373 189 0
-372 -188 0
-372 -373 0
-372 -189 0
-188 -373 0
-188 -189 0
-373 -189 0
387 189 388 190 0
-387 -189 0
-387 -388 0
-387 -190 0
-189 -388 0
-189 -190 0
-388 -190 0
402 190 403 191 0
-402 -190 0
-402 -403 0
-402 -191 0
-190 -403 0
-190 -191 0
-403 -191 0
417 191 418 192 0
-417 -191 0
-417 -418 0
-417 -192 0
-191 -418 0
-191 -192 0
-418 -192 0
432 192 433 193 0
-432 -192 0
-432 -433 0
-432 -193 0
-192 -433 0
-192 -193 0
-433 -193 0
447 193 448 194 0
-447 -193 0
-447 -448 0
-447 -194 0
-193 -448 0
-193 -194 0
-448 -194 0
462 194 463 195 0
-462 -194 0
-462 -463 0
-462 -195 0
-194 -463 0
-194 -195 0
-463 -195 0
477 195 478 0
-477 -195 0
-477 -478 0
-195 -478 0
253 254 196 0
-253 -254 0
-253 -196 0
-254 -196 0
268 196 269 197 0
-268 -196 0
-268 -269 0
-268 -197 0
-196 -269 0
-196 -197 0
-269 -197 0
283 197 284 198 0
-283 -197 0
-283 -284 0
-283 -198 0
-197 -284 0
-197 -198 0
-284 -198 0
298 198 299 199 0
-298 -198 0
-298 -299 0
-298 -199 0
-198 -299 0
-198 -199 0
-299 -199 0
313 199 314 200 0
-313 -199 0
-313 -314 0
-313 -200 0
-199 -314 0
-199 -200 0
-314 -200 0
328 200 329 201 0
-328 -200 0
-328 -329 0
-328 -201 0
-200 -329 0
-200 -201 0
-329 -201 0
343 201 344 202 0
-343 -201 0
-343 -344 0
-343 -202 0
-201 -344 0
-201 -202 0
-344 -202 0
358 202 359 203 0
-358 -202 0
-358 -359 0
-358 -203 0
-202 -359 0
-202 -203 0
-359 -203 0
373 203 374 204 0
-373 -203 0
-373 -374 0
-373 -204 0
-203 -374 0
-203 -204 0
-374 -204 0
388 204 389 205 0
-388 -204 0
-388 -389 0
-388 -205 0
-204 -389 0
-204 -205 0
-389 -205 0
403 205 404 206 0
-403 -205 0
-403 -404 0
-403 -206 0
-205 -404 0
-205 -206 0
-404 -206 0
418 206 419 207 0
-418 -206 0
-418 -419 0
-418 -207 0
-206 -419 0
-206 -207 0
-419 -207 0
433 207 434 208 0
-433 -207 0
-433 -434 0
-433 -208 0
-207 -434 0
-207 -208 0
-434 -208 0
448 208 449 209 0
-448 -208 0
-448 -449 0
-448 -209 0
-208 -449 0
-208 -209 0
-449 -209 0
463 209 464 210 0
-463 -209 0
-463 -464 0
-463 -210 0
-209 -464 0
-209 -210 0
-464 -210 0
478 210 479 0
-478 -210 0
-478 -479 0
-210 -479 0
254 255 211 0
-254 -255 0
-254 -211 0
-255 -211 0
269 211 270 212 0
-269 -211 0
-269 -270 0
-269 -212 0
-211 -270 0
-211 -212 0
-270 -212 0
284 212 285 213 0
-284 -212 0
-284 -285 0
-284 -213 0
-212 -285 0
-212 -213 0
-285 -213 0
299 213 300 214 0
-299 -213 0
-299 -300 0
-299 -214 0
-213 -300 0
-213 -214 0
-300 -214 0
314 214 315 215 0
-314 -214 0
-314 -315 0
-314 -215 0
-214 -315 0
-214 -215 0
-315 -215 0
329 215 330 216 0
-329 -215 0
-329 -330 0
-329 -216 0
-215 -330 0
-215 -216 0
-330 -216 0
344 216 345 217 0
-344 -216 0
-344 -345 0
-344 -217 0
-216 -345 0
-216 -217 0
-345 -217 0
359 217 360 218 0
-359 -217 0
-359 -360 0
-359 -218 0
-217 -360 0
-217 -218 0
-360 -218 0
374 218 375 219 0
-374 -218 0
-374 -375 0
-374 -219 0
-218 -375 0
-218 -219 0
-375 -219 0
389 219 390 220 0
-389 -219 0
-389 -390 0
-389 -220 0
-219 -390 0
-219 -220 0
-390 -220 0
404 220 405 221 0
-404 -220 0
-404 -405 0
-404 -221 0
-220 -405 0
-220 -221 0
-405 -221 0
419 221 420 222 0
-419 -221 0
-419 -420 0
-419 -222 0
-221 -420 0
-221 -222 0
-420 -222 0
434 222 435 223 0
-434 -222 0
-434 -435 0
-434 -223 0
-222 -435 0
-222 -223 0
-435 -223 0
449 223 450 224 0
-449 -223 0
-449 -450 0
-449 -224 0
-223 -450 0
-223 -224 0
-450 -224 0
464 224 465 225 0
-464 -224 0
-464 -465 0
-464 -225 0
-224 -465 0
-224 -225 0
-465 -225 0
479 225 0
-479 -225 0
255 226 0
-255 -226 0
270 226 227 0
-270 -226 0
-270 -227 0
-226 -227 0
285 227 228 0
-285 -227 0
-285 -228 0
-227 -228 0
300 228 229 0
-300 -228 0
-300 -229 0
-228 -229 0
315 229 230 0
-315 -229 0
-315 -230 0
-229 -230 0
330 230 231 0
-330 -230 0
-330 -231 0
-230 -231 0
345 231 232 0
-345 -231 0
-345 -232 0
-231 -232 0
360 232 233 0
-360 -232 0
-360 -233 0
-232 -233 0
375 233 234 0
-375 -233 0
-375 -234 0
-233 -234 0
390 234 235 0
-390 -234 0
-390 -235 0
-234 -235 0
405 235 236 0
-405 -235 0
-405 -236 0
-235 -236 0
420 236 237 0
-420 -236 0
-420 -237 0
-236 -237 0
435 237 238 0
-435 -237 0
-435 -238 0
-237 -238 0
450 238 239 0
-450 -238 0
-450 -239 0
-238 -239 0
465 239 0
-465 -239 0
-240 0
-480 0
